(define-fun inv2 ((x!0 Int) (x!1 Int) (x!2 Int) (x!3 Int)) Bool
  (let ((a!1 (not (<= (+ x!0 (* (- 2) x!1) x!2) (- 2))))
        (a!2 (+ (* 2 x!1) (* (- 1) x!2) (* (- 1) x!3)))
        (a!3 (not (<= (+ x!2 (* (- 1) x!3)) 1)))
        (a!4 (not (<= (+ x!1 (* (- 1) x!3)) 2499)))
        (a!5 (not (>= (+ x!0 (* (- 1) x!1)) 1)))
        (a!6 (not (>= (+ x!0 (* (- 1) x!1)) 0)))
        (a!7 (not (= (+ x!0 (* (- 1) x!2)) (- 2))))
        (a!8 (not (>= (+ x!0 (* (- 1) x!3)) 0)))
        (a!10 (not (>= (+ x!0 (* (- 1) x!1)) (- 1))))
        (a!11 (not (= (+ x!0 (* (- 1) x!2)) (- 4))))
        (a!13 (not (>= (+ x!0 (* (- 1) x!1)) (- 2))))
        (a!14 (not (= (+ x!0 (* (- 1) x!2)) (- 6))))
        (a!16 (not (= (mod (+ x!0 x!2) 2) 0)))
        (a!17 (not (>= (+ x!0 (* (- 2) x!1) x!2) 2))))
  (let ((a!9 (or (not (= (mod x!0 2) 0)) a!6 a!7 a!8))
        (a!12 (or (not (= (mod x!0 2) 0)) a!10 a!8 a!11))
        (a!15 (or (not (= (mod x!0 2) 0)) a!8 a!13 a!14)))
    (and (or a!1 (not (>= a!2 2)))
         a!3
         a!4
         (not (>= (mod x!0 2) 1))
         (or (not (= x!2 x!0)) a!5)
         a!9
         a!12
         (not (<= a!2 (- 1)))
         a!15
         (or a!16 a!17)))))

